5 5
2 32 4 79 3 77 0 82 1 74
0 40 2 57 4 11 1 40 3 47
3 2 1 91 0 52 4 72 2 49
1 59 3 38 0 16 2 88 4 87
4 78 3 27 2 74 0 28 1 89
-1
0 1 2 4 5
0 1 3 4 5
0 1 2 5
0 1 4 5
0 2 3 5
-2
35 169 426 457
49 139 171 254
3 128 292
65 207 447
137 267 412

393 6
5 17 12 23 3
15 11 8 24 4
0 6 22 18 14
10 16 21 2 9
20 1 7 13 19
